\ENCODING=ISO-8859-1
\Problem name: ilog.cplex

Minimize
 obj1: 93284 x1 + 90408 x2 + 90348 x3 + 99789 x4 + 99544 x5 + 91233 x6
       + 91780 x7 + 105253 x8 + 106819 x9 + 104674 x10 + 102424 x11 + 96462 x12
       + 90540 x13 + 106060 x14 + 91176 x15 + 103138 x16 + 106256 x17
       + 93900 x18 + 101077 x19 + 102580 x20 + 97253 x21 + 107645 x22
       + 90195 x23 + 98035 x24 + 98876 x25 + 96241 x26 + 103710 x27 + 90339 x28
       + 97837 x29 + 91635 x30 + 101657 x31 + 91086 x32 + 93567 x33 + 92218 x34
       + 90885 x35 + 104183 x36 + 93074 x37 + 92595 x38 + 99484 x39 + 91868 x40
       + 90751 x41 + 108121 x42 + 107277 x43 + 101173 x44 + 100279 x45
       + 95348 x46 + 106910 x47 + 97258 x48 + 96987 x49 + 102791 x50
       + 100363 x51 + 98481 x52 + 101409 x53 + 93689 x54 + 90388 x55
       + 91844 x56 + 90717 x57 + 99208 x58 + 98272 x59 + 99046 x60 + 93142 x61
       + 94426 x62 + 96688 x63 + 104624 x64 + 109234 x65 + 92769 x66
       + 93608 x67 + 107950 x68 + 102120 x69 + 90247 x70 + 91513 x71
       + 107509 x72 + 91737 x73 + 103735 x74 + 102820 x75 + 101623 x76
       + 100092 x77 + 107486 x78 + 104862 x79 + 101878 x80 + 106509 x81
       + 90830 x82 + 96662 x83 + 92771 x84 + 108568 x85 + 107505 x86
       + 99325 x87 + 93886 x88 + 91806 x89 + 90222 x90 + 102020 x91
       + 109377 x92 + 109232 x93 + 102827 x94 + 96346 x95 + 103637 x96
       + 100326 x97 + 96834 x98 + 103271 x99 + 101704 x100 + 98326 x101
       + 105297 x102 + 103088 x103 + 108233 x104 + 90519 x105 + 92061 x106
       + 97374 x107 + 98396 x108 + 105086 x109 + 97001 x110 + 102054 x111
       + 108798 x112 + 94724 x113 + 92198 x114 + 96096 x115 + 97621 x116
       + 104212 x117 + 103575 x118 + 106940 x119 + 91326 x120 + 101611 x121
       + 91764 x122 + 97341 x123 + 108595 x124 + 108494 x125 + 94894 x126
       + 103893 x127 + 96867 x128 + 107938 x129 + 98595 x130 + 106666 x131
       + 106627 x132 + 99335 x133 + 93399 x134 + 100041 x135 + 96303 x136
       + 105027 x137 + 105220 x138 + 101090 x139 + 108904 x140 + 95380 x141
       + 100659 x142 + 93761 x143 + 90474 x144 + 106088 x145 + 95682 x146
       + 104624 x147 + 109971 x148 + 94345 x149 + 93526 x150 + 105723 x151
       + 95818 x152 + 91670 x153 + 93754 x154 + 108697 x155 + 101283 x156
       + 97541 x157 + 92617 x158 + 97681 x159 + 106771 x160 + 90164 x161
       + 101285 x162 + 99512 x163 + 105369 x164 + 109537 x165 + 90159 x166
       + 96397 x167 + 98065 x168 + 107582 x169 + 90434 x170 + 93816 x171
       + 104824 x172 + 100925 x173 + 107324 x174 + 97492 x175 + 99069 x176
       + 100898 x177 + 102195 x178 + 106721 x179 + 102140 x180 + 94471 x181
       + 98876 x182 + 104318 x183 + 108063 x184 + 105591 x185 + 98451 x186
       + 107085 x187 + 98359 x188 + 102885 x189 + 101594 x190 + 94919 x191
       + 91652 x192 + 96689 x193 + 97805 x194 + 101541 x195 + 93470 x196
       + 106068 x197 + 106878 x198 + 105339 x199 + 107899 x200 + 104655 x201
       + 93996 x202 + 101209 x203 + 100591 x204 + 102655 x205 + 109465 x206
       + 106294 x207 + 90793 x208 + 94307 x209 + 90281 x210 + 97672 x211
       + 109621 x212 + 93516 x213 + 98125 x214 + 101587 x215 + 101268 x216
       + 104794 x217 + 96520 x218 + 106728 x219 + 105598 x220 + 100878 x221
       + 102111 x222 + 102141 x223 + 99353 x224 + 101917 x225 + 102481 x226
       + 99456 x227 + 97858 x228 + 90536 x229 + 108393 x230 + 91483 x231
       + 93232 x232 + 94012 x233 + 92229 x234 + 101457 x235 + 106821 x236
       + 97276 x237 + 108974 x238 + 105039 x239 + 105971 x240 + 98646 x241
       + 101252 x242 + 100624 x243 + 98218 x244 + 103919 x245 + 95739 x246
       + 102613 x247 + 109589 x248 + 93878 x249 + 104679 x250 + 93307 x251
       + 108898 x252 + 107296 x253 + 96006 x254 + 101650 x255 + 107844 x256
       + 93975 x257 + 91440 x258 + 97451 x259 + 97754 x260 + 92743 x261
       + 90793 x262 + 105941 x263 + 106328 x264 + 96299 x265 + 109920 x266
       + 91681 x267 + 100925 x268 + 100100 x269 + 90088 x270 + 97901 x271
       + 96718 x272 + 91851 x273 + 91002 x274 + 99562 x275 + 106923 x276
       + 103790 x277 + 90820 x278 + 97784 x279 + 94581 x280 + 95106 x281
       + 105851 x282 + 95337 x283 + 100773 x284 + 91714 x285 + 98309 x286
       + 105567 x287 + 105026 x288 + 101062 x289 + 91772 x290 + 100443 x291
       + 100317 x292 + 100795 x293 + 100843 x294 + 97309 x295 + 97243 x296
       + 91815 x297 + 104099 x298 + 98500 x299 + 109785 x300 + 98534 x301
       + 93061 x302 + 99150 x303 + 106336 x304 + 96341 x305 + 100283 x306
       + 106051 x307 + 97036 x308 + 96046 x309 + 101860 x310 + 107723 x311
       + 103644 x312 + 100297 x313 + 93472 x314 + 103226 x315 + 93177 x316
       + 99393 x317 + 91990 x318 + 103563 x319 + 108843 x320 + 94705 x321
       + 91922 x322 + 93753 x323 + 109449 x324 + 102396 x325 + 108223 x326
       + 96267 x327 + 93709 x328 + 95032 x329 + 99771 x330 + 90669 x331
       + 102681 x332 + 107110 x333 + 105833 x334 + 103085 x335 + 94376 x336
       + 104608 x337 + 96420 x338 + 93520 x339 + 105989 x340 + 98382 x341
       + 96696 x342 + 99045 x343 + 101269 x344 + 106570 x345 + 95472 x346
       + 96531 x347 + 103208 x348 + 102099 x349 + 108272 x350 + 96611 x351
       + 103657 x352 + 100501 x353 + 105368 x354 + 106834 x355 + 97256 x356
       + 104658 x357 + 106892 x358 + 104247 x359 + 102497 x360 + 90226 x361
       + 101806 x362 + 101244 x363 + 90537 x364 + 94529 x365 + 97871 x366
       + 91761 x367 + 93999 x368 + 107138 x369 + 90157 x370 + 108618 x371
       + 104929 x372 + 101048 x373 + 97005 x374 + 95173 x375 + 99928 x376
       + 102003 x377 + 99424 x378 + 108206 x379 + 90061 x380 + 108343 x381
       + 91766 x382 + 105064 x383 + 95038 x384 + 102709 x385 + 98741 x386
       + 94816 x387 + 98692 x388 + 106476 x389 + 106645 x390 + 90580 x391
       + 95906 x392 + 97940 x393 + 95167 x394 + 108102 x395 + 109924 x396
       + 106128 x397 + 100173 x398 + 94346 x399 + 103380 x400 + 106374 x401
       + 92829 x402 + 94060 x403 + 102112 x404 + 100599 x405 + 96352 x406
       + 90142 x407 + 100024 x408 + 109772 x409 + 108347 x410 + 90144 x411
       + 95973 x412 + 93526 x413 + 106504 x414 + 102710 x415 + 109585 x416
       + 104428 x417 + 91779 x418 + 95864 x419 + 104978 x420 + 105961 x421
       + 101710 x422 + 92786 x423 + 108594 x424 + 103026 x425 + 97949 x426
       + 103937 x427 + 91961 x428 + 105981 x429 + 105182 x430 + 95817 x431
       + 108757 x432 + 94192 x433 + 95673 x434 + 96979 x435 + 100422 x436
       + 105755 x437 + 91326 x438 + 107883 x439 + 100031 x440 + 96302 x441
       + 93483 x442 + 92736 x443 + 90288 x444 + 101698 x445 + 109586 x446
       + 108698 x447 + 108198 x448 + 106966 x449 + 105375 x450 + 91497 x451
       + 98166 x452 + 98932 x453 + 102659 x454 + 94171 x455 + 105459 x456
       + 108411 x457 + 92841 x458 + 100999 x459 + 94699 x460 + 109690 x461
       + 107932 x462 + 95062 x463 + 98532 x464 + 96353 x465 + 102188 x466
       + 93105 x467 + 108492 x468 + 95753 x469 + 98676 x470 + 106925 x471
       + 102641 x472 + 109986 x473 + 99882 x474 + 91005 x475 + 107967 x476
       + 101752 x477 + 108884 x478 + 103972 x479 + 100873 x480 + 106475 x481
       + 94221 x482 + 96663 x483 + 102589 x484 + 94993 x485 + 95354 x486
       + 105329 x487 + 105393 x488 + 104788 x489 + 105025 x490 + 95014 x491
       + 90243 x492 + 101928 x493 + 99806 x494 + 105107 x495 + 106751 x496
       + 90790 x497 + 100820 x498 + 96816 x499 + 197726 x500 + 36505 x501
       + 41094 x502 + 39006 x503 + 41792 x504 + 39657 x505 + 37904 x506
       + 40082 x507 + 37951 x508 + 36748 x509 + 43551 x510 + 36017 x511
       + 37411 x512 + 38515 x513 + 39894 x514 + 43837 x515 + 41258 x516
       + 43703 x517 + 43905 x518 + 37460 x519 + 42309 x520 + 37548 x521
       + 37056 x522 + 37854 x523 + 42007 x524 + 36811 x525 + 38130 x526
       + 41924 x527 + 41195 x528 + 42071 x529 + 42068 x530 + 43355 x531
       + 43869 x532 + 39163 x533 + 43099 x534 + 41165 x535 + 38989 x536
       + 37613 x537 + 38785 x538 + 39068 x539 + 38215 x540 + 40581 x541
       + 36744 x542 + 42809 x543 + 42922 x544 + 40317 x545 + 41688 x546
       + 43448 x547 + 36106 x548 + 41289 x549 + 35512 x550
Subject To
 c1:   - x5 - x7 - x18 - x20 + x27 - x28 + x39 + x42 - x46 + x47  = 0
 c2:   - x55 - x57 - x68 - x70 + x77 - x78 + x89 + x92 - x96 + x97  = 1
 c3:   - x105 - x107 - x118 - x120 + x127 - x128 + x139 + x142 - x146 + x147
        = 0
 c4:   - x155 - x157 - x168 - x170 + x177 - x178 + x189 + x192 - x196 + x197
        = 1
 c5:   - x205 - x207 - x218 - x220 + x227 - x228 + x239 + x242 - x246 + x247
        = 0
 c6:   - x255 - x257 - x268 - x270 + x277 - x278 + x289 + x292 - x296 + x297
        = 0
 c7:   - x305 - x307 - x318 - x320 + x327 - x328 + x339 + x342 - x346 + x347
        = 0
 c8:   - x355 - x357 - x368 - x370 + x377 - x378 + x389 + x392 - x396 + x397
        = 0
 c9:   - x405 - x407 - x418 - x420 + x427 - x428 + x439 + x442 - x446 + x447
        = 0
 c10:  - x455 - x457 - x468 - x470 + x477 - x478 + x489 + x492 - x496 + x497
        = 0
 c11:  x5 + x6 - x8 + x10 + x15 + x23 - x25 + x32 + x35 - x42 - x43  = -1
 c12:  x55 + x56 - x58 + x60 + x65 + x73 - x75 + x82 + x85 - x92 - x93  = 0
 c13:  x105 + x106 - x108 + x110 + x115 + x123 - x125 + x132 + x135 - x142
       - x143  = 0
 c14:  x155 + x156 - x158 + x160 + x165 + x173 - x175 + x182 + x185 - x192
       - x193  = 0
 c15:  x205 + x206 - x208 + x210 + x215 + x223 - x225 + x232 + x235 - x242
       - x243  = 0
 c16:  x255 + x256 - x258 + x260 + x265 + x273 - x275 + x282 + x285 - x292
       - x293  = 0
 c17:  x305 + x306 - x308 + x310 + x315 + x323 - x325 + x332 + x335 - x342
       - x343  = -1
 c18:  x355 + x356 - x358 + x360 + x365 + x373 - x375 + x382 + x385 - x392
       - x393  = 0
 c19:  x405 + x406 - x408 + x410 + x415 + x423 - x425 + x432 + x435 - x442
       - x443  = 0
 c20:  x455 + x456 - x458 + x460 + x465 + x473 - x475 + x482 + x485 - x492
       - x493  = 0
 c21:  x11 - x12 + x29 + x33 - x37 - x41 - x45 + x46  = 0
 c22:  x61 - x62 + x79 + x83 - x87 - x91 - x95 + x96  = -1
 c23:  x111 - x112 + x129 + x133 - x137 - x141 - x145 + x146  = 0
 c24:  x161 - x162 + x179 + x183 - x187 - x191 - x195 + x196  = 0
 c25:  x211 - x212 + x229 + x233 - x237 - x241 - x245 + x246  = 0
 c26:  x261 - x262 + x279 + x283 - x287 - x291 - x295 + x296  = -1
 c27:  x311 - x312 + x329 + x333 - x337 - x341 - x345 + x346  = 0
 c28:  x361 - x362 + x379 + x383 - x387 - x391 - x395 + x396  = 1
 c29:  x411 - x412 + x429 + x433 - x437 - x441 - x445 + x446  = 0
 c30:  x461 - x462 + x479 + x483 - x487 - x491 - x495 + x496  = 0
 c31:  x8 + x12 + x16 + x28 - x29 - x31 - x38 - x39 - x40 + x48 - x50  = 0
 c32:  x58 + x62 + x66 + x78 - x79 - x81 - x88 - x89 - x90 + x98 - x100  = 0
 c33:  x108 + x112 + x116 + x128 - x129 - x131 - x138 - x139 - x140 + x148
       - x150  = 0
 c34:  x158 + x162 + x166 + x178 - x179 - x181 - x188 - x189 - x190 + x198
       - x200  = 0
 c35:  x208 + x212 + x216 + x228 - x229 - x231 - x238 - x239 - x240 + x248
       - x250  = 0
 c36:  x258 + x262 + x266 + x278 - x279 - x281 - x288 - x289 - x290 + x298
       - x300  = 1
 c37:  x308 + x312 + x316 + x328 - x329 - x331 - x338 - x339 - x340 + x348
       - x350  = 0
 c38:  x358 + x362 + x366 + x378 - x379 - x381 - x388 - x389 - x390 + x398
       - x400  = -1
 c39:  x408 + x412 + x416 + x428 - x429 - x431 - x438 - x439 - x440 + x448
       - x450  = 0
 c40:  x458 + x462 + x466 + x478 - x479 - x481 - x488 - x489 - x490 + x498
       - x500  = 1
 c41:  - x2 + x4 - x9 + x19 - x24 - x33 - x35 + x41 + x50  = 0
 c42:  - x52 + x54 - x59 + x69 - x74 - x83 - x85 + x91 + x100  = 0
 c43:  - x102 + x104 - x109 + x119 - x124 - x133 - x135 + x141 + x150  = -1
 c44:  - x152 + x154 - x159 + x169 - x174 - x183 - x185 + x191 + x200  = -1
 c45:  - x202 + x204 - x209 + x219 - x224 - x233 - x235 + x241 + x250  = 0
 c46:  - x252 + x254 - x259 + x269 - x274 - x283 - x285 + x291 + x300  = 0
 c47:  - x302 + x304 - x309 + x319 - x324 - x333 - x335 + x341 + x350  = 0
 c48:  - x352 + x354 - x359 + x369 - x374 - x383 - x385 + x391 + x400  = 0
 c49:  - x402 + x404 - x409 + x419 - x424 - x433 - x435 + x441 + x450  = -1
 c50:  - x452 + x454 - x459 + x469 - x474 - x483 - x485 + x491 + x500  = 0
 c51:  x2 - x6 + x18 - x19 - x34 + x36 + x38 + x44  = 0
 c52:  x52 - x56 + x68 - x69 - x84 + x86 + x88 + x94  = 0
 c53:  x102 - x106 + x118 - x119 - x134 + x136 + x138 + x144  = 0
 c54:  x152 - x156 + x168 - x169 - x184 + x186 + x188 + x194  = 0
 c55:  x202 - x206 + x218 - x219 - x234 + x236 + x238 + x244  = 0
 c56:  x252 - x256 + x268 - x269 - x284 + x286 + x288 + x294  = 0
 c57:  x302 - x306 + x318 - x319 - x334 + x336 + x338 + x344  = 0
 c58:  x352 - x356 + x368 - x369 - x384 + x386 + x388 + x394  = 0
 c59:  x402 - x406 + x418 - x419 - x434 + x436 + x438 + x444  = 0
 c60:  x452 - x456 + x468 - x469 - x484 + x486 + x488 + x494  = 0
 c61:  - x3 - x4 + x7 - x13 + x14 - x15 - x17 + x22 + x26 - x27 + x40 + x45
        = 0
 c62:  - x53 - x54 + x57 - x63 + x64 - x65 - x67 + x72 + x76 - x77 + x90 + x95
        = 0
 c63:  - x103 - x104 + x107 - x113 + x114 - x115 - x117 + x122 + x126 - x127
       + x140 + x145  = 0
 c64:  - x153 - x154 + x157 - x163 + x164 - x165 - x167 + x172 + x176 - x177
       + x190 + x195  = 0
 c65:  - x203 - x204 + x207 - x213 + x214 - x215 - x217 + x222 + x226 - x227
       + x240 + x245  = 0
 c66:  - x253 - x254 + x257 - x263 + x264 - x265 - x267 + x272 + x276 - x277
       + x290 + x295  = 0
 c67:  - x303 - x304 + x307 - x313 + x314 - x315 - x317 + x322 + x326 - x327
       + x340 + x345  = 0
 c68:  - x353 - x354 + x357 - x363 + x364 - x365 - x367 + x372 + x376 - x377
       + x390 + x395  = 0
 c69:  - x403 - x404 + x407 - x413 + x414 - x415 - x417 + x422 + x426 - x427
       + x440 + x445  = 0
 c70:  - x453 - x454 + x457 - x463 + x464 - x465 - x467 + x472 + x476 - x477
       + x490 + x495  = 0
 c71:  x1 - x11 - x16 + x17 - x21 - x26 + x31 - x32 + x34 - x36 - x49  = 0
 c72:  x51 - x61 - x66 + x67 - x71 - x76 + x81 - x82 + x84 - x86 - x99  = 0
 c73:  x101 - x111 - x116 + x117 - x121 - x126 + x131 - x132 + x134 - x136
       - x149  = 0
 c74:  x151 - x161 - x166 + x167 - x171 - x176 + x181 - x182 + x184 - x186
       - x199  = 0
 c75:  x201 - x211 - x216 + x217 - x221 - x226 + x231 - x232 + x234 - x236
       - x249  = -1
 c76:  x251 - x261 - x266 + x267 - x271 - x276 + x281 - x282 + x284 - x286
       - x299  = 0
 c77:  x301 - x311 - x316 + x317 - x321 - x326 + x331 - x332 + x334 - x336
       - x349  = 0
 c78:  x351 - x361 - x366 + x367 - x371 - x376 + x381 - x382 + x384 - x386
       - x399  = 0
 c79:  x401 - x411 - x416 + x417 - x421 - x426 + x431 - x432 + x434 - x436
       - x449  = 0
 c80:  x451 - x461 - x466 + x467 - x471 - x476 + x481 - x482 + x484 - x486
       - x499  = 0
 c81:  x3 - x10 + x20 - x22 + x24 + x30 + x43 - x48 + x49  = 1
 c82:  x53 - x60 + x70 - x72 + x74 + x80 + x93 - x98 + x99  = 0
 c83:  x103 - x110 + x120 - x122 + x124 + x130 + x143 - x148 + x149  = 0
 c84:  x153 - x160 + x170 - x172 + x174 + x180 + x193 - x198 + x199  = 0
 c85:  x203 - x210 + x220 - x222 + x224 + x230 + x243 - x248 + x249  = 0
 c86:  x253 - x260 + x270 - x272 + x274 + x280 + x293 - x298 + x299  = 0
 c87:  x303 - x310 + x320 - x322 + x324 + x330 + x343 - x348 + x349  = 1
 c88:  x353 - x360 + x370 - x372 + x374 + x380 + x393 - x398 + x399  = 0
 c89:  x403 - x410 + x420 - x422 + x424 + x430 + x443 - x448 + x449  = 1
 c90:  x453 - x460 + x470 - x472 + x474 + x480 + x493 - x498 + x499  = -1
 c91:  - x1 + x9 + x13 - x14 + x21 - x23 + x25 - x30 + x37 - x44 - x47  = 0
 c92:  - x51 + x59 + x63 - x64 + x71 - x73 + x75 - x80 + x87 - x94 - x97  = 0
 c93:  - x101 + x109 + x113 - x114 + x121 - x123 + x125 - x130 + x137 - x144
       - x147  = 1
 c94:  - x151 + x159 + x163 - x164 + x171 - x173 + x175 - x180 + x187 - x194
       - x197  = 0
 c95:  - x201 + x209 + x213 - x214 + x221 - x223 + x225 - x230 + x237 - x244
       - x247  = 1
 c96:  - x251 + x259 + x263 - x264 + x271 - x273 + x275 - x280 + x287 - x294
       - x297  = 0
 c97:  - x301 + x309 + x313 - x314 + x321 - x323 + x325 - x330 + x337 - x344
       - x347  = 0
 c98:  - x351 + x359 + x363 - x364 + x371 - x373 + x375 - x380 + x387 - x394
       - x397  = 0
 c99:  - x401 + x409 + x413 - x414 + x421 - x423 + x425 - x430 + x437 - x444
       - x447  = 0
 c100: - x451 + x459 + x463 - x464 + x471 - x473 + x475 - x480 + x487 - x494
       - x497  = 0
 c101: 4 x1 + 4 x51 + 4 x101 + 4 x151 + 4 x201 + 4 x251 + 4 x301 + 4 x351
       + 4 x401 + 4 x451 - 21 x501 <= 0
 c102: 4 x2 + 4 x52 + 4 x102 + 4 x152 + 4 x202 + 4 x252 + 4 x302 + 4 x352
       + 4 x402 + 4 x452 - 19 x502 <= 0
 c103: 4 x3 + 4 x53 + 4 x103 + 4 x153 + 4 x203 + 4 x253 + 4 x303 + 4 x353
       + 4 x403 + 4 x453 - 20 x503 <= 0
 c104: 4 x4 + 4 x54 + 4 x104 + 4 x154 + 4 x204 + 4 x254 + 4 x304 + 4 x354
       + 4 x404 + 4 x454 - 21 x504 <= 0
 c105: 4 x5 + 4 x55 + 4 x105 + 4 x155 + 4 x205 + 4 x255 + 4 x305 + 4 x355
       + 4 x405 + 4 x455 - 21 x505 <= 0
 c106: 4 x6 + 4 x56 + 4 x106 + 4 x156 + 4 x206 + 4 x256 + 4 x306 + 4 x356
       + 4 x406 + 4 x456 - 21 x506 <= 0
 c107: 4 x7 + 4 x57 + 4 x107 + 4 x157 + 4 x207 + 4 x257 + 4 x307 + 4 x357
       + 4 x407 + 4 x457 - 20 x507 <= 0
 c108: 4 x8 + 4 x58 + 4 x108 + 4 x158 + 4 x208 + 4 x258 + 4 x308 + 4 x358
       + 4 x408 + 4 x458 - 19 x508 <= 0
 c109: 4 x9 + 4 x59 + 4 x109 + 4 x159 + 4 x209 + 4 x259 + 4 x309 + 4 x359
       + 4 x409 + 4 x459 - 19 x509 <= 0
 c110: 4 x10 + 4 x60 + 4 x110 + 4 x160 + 4 x210 + 4 x260 + 4 x310 + 4 x360
       + 4 x410 + 4 x460 - 20 x510 <= 0
 c111: 4 x11 + 4 x61 + 4 x111 + 4 x161 + 4 x211 + 4 x261 + 4 x311 + 4 x361
       + 4 x411 + 4 x461 - 22 x511 <= 0
 c112: 4 x12 + 4 x62 + 4 x112 + 4 x162 + 4 x212 + 4 x262 + 4 x312 + 4 x362
       + 4 x412 + 4 x462 - 18 x512 <= 0
 c113: 4 x13 + 4 x63 + 4 x113 + 4 x163 + 4 x213 + 4 x263 + 4 x313 + 4 x363
       + 4 x413 + 4 x463 - 19 x513 <= 0
 c114: 4 x14 + 4 x64 + 4 x114 + 4 x164 + 4 x214 + 4 x264 + 4 x314 + 4 x364
       + 4 x414 + 4 x464 - 18 x514 <= 0
 c115: 4 x15 + 4 x65 + 4 x115 + 4 x165 + 4 x215 + 4 x265 + 4 x315 + 4 x365
       + 4 x415 + 4 x465 - 21 x515 <= 0
 c116: 4 x16 + 4 x66 + 4 x116 + 4 x166 + 4 x216 + 4 x266 + 4 x316 + 4 x366
       + 4 x416 + 4 x466 - 21 x516 <= 0
 c117: 4 x17 + 4 x67 + 4 x117 + 4 x167 + 4 x217 + 4 x267 + 4 x317 + 4 x367
       + 4 x417 + 4 x467 - 18 x517 <= 0
 c118: 4 x18 + 4 x68 + 4 x118 + 4 x168 + 4 x218 + 4 x268 + 4 x318 + 4 x368
       + 4 x418 + 4 x468 - 20 x518 <= 0
 c119: 4 x19 + 4 x69 + 4 x119 + 4 x169 + 4 x219 + 4 x269 + 4 x319 + 4 x369
       + 4 x419 + 4 x469 - 20 x519 <= 0
 c120: 4 x20 + 4 x70 + 4 x120 + 4 x170 + 4 x220 + 4 x270 + 4 x320 + 4 x370
       + 4 x420 + 4 x470 - 19 x520 <= 0
 c121: 4 x21 + 4 x71 + 4 x121 + 4 x171 + 4 x221 + 4 x271 + 4 x321 + 4 x371
       + 4 x421 + 4 x471 - 19 x521 <= 0
 c122: 4 x22 + 4 x72 + 4 x122 + 4 x172 + 4 x222 + 4 x272 + 4 x322 + 4 x372
       + 4 x422 + 4 x472 - 19 x522 <= 0
 c123: 4 x23 + 4 x73 + 4 x123 + 4 x173 + 4 x223 + 4 x273 + 4 x323 + 4 x373
       + 4 x423 + 4 x473 - 21 x523 <= 0
 c124: 4 x24 + 4 x74 + 4 x124 + 4 x174 + 4 x224 + 4 x274 + 4 x324 + 4 x374
       + 4 x424 + 4 x474 - 21 x524 <= 0
 c125: 4 x25 + 4 x75 + 4 x125 + 4 x175 + 4 x225 + 4 x275 + 4 x325 + 4 x375
       + 4 x425 + 4 x475 - 22 x525 <= 0
 c126: 4 x26 + 4 x76 + 4 x126 + 4 x176 + 4 x226 + 4 x276 + 4 x326 + 4 x376
       + 4 x426 + 4 x476 - 18 x526 <= 0
 c127: 4 x27 + 4 x77 + 4 x127 + 4 x177 + 4 x227 + 4 x277 + 4 x327 + 4 x377
       + 4 x427 + 4 x477 - 20 x527 <= 0
 c128: 4 x28 + 4 x78 + 4 x128 + 4 x178 + 4 x228 + 4 x278 + 4 x328 + 4 x378
       + 4 x428 + 4 x478 - 21 x528 <= 0
 c129: 4 x29 + 4 x79 + 4 x129 + 4 x179 + 4 x229 + 4 x279 + 4 x329 + 4 x379
       + 4 x429 + 4 x479 - 19 x529 <= 0
 c130: 4 x30 + 4 x80 + 4 x130 + 4 x180 + 4 x230 + 4 x280 + 4 x330 + 4 x380
       + 4 x430 + 4 x480 - 22 x530 <= 0
 c131: 4 x31 + 4 x81 + 4 x131 + 4 x181 + 4 x231 + 4 x281 + 4 x331 + 4 x381
       + 4 x431 + 4 x481 - 18 x531 <= 0
 c132: 4 x32 + 4 x82 + 4 x132 + 4 x182 + 4 x232 + 4 x282 + 4 x332 + 4 x382
       + 4 x432 + 4 x482 - 19 x532 <= 0
 c133: 4 x33 + 4 x83 + 4 x133 + 4 x183 + 4 x233 + 4 x283 + 4 x333 + 4 x383
       + 4 x433 + 4 x483 - 20 x533 <= 0
 c134: 4 x34 + 4 x84 + 4 x134 + 4 x184 + 4 x234 + 4 x284 + 4 x334 + 4 x384
       + 4 x434 + 4 x484 - 19 x534 <= 0
 c135: 4 x35 + 4 x85 + 4 x135 + 4 x185 + 4 x235 + 4 x285 + 4 x335 + 4 x385
       + 4 x435 + 4 x485 - 19 x535 <= 0
 c136: 4 x36 + 4 x86 + 4 x136 + 4 x186 + 4 x236 + 4 x286 + 4 x336 + 4 x386
       + 4 x436 + 4 x486 - 20 x536 <= 0
 c137: 4 x37 + 4 x87 + 4 x137 + 4 x187 + 4 x237 + 4 x287 + 4 x337 + 4 x387
       + 4 x437 + 4 x487 - 19 x537 <= 0
 c138: 4 x38 + 4 x88 + 4 x138 + 4 x188 + 4 x238 + 4 x288 + 4 x338 + 4 x388
       + 4 x438 + 4 x488 - 19 x538 <= 0
 c139: 4 x39 + 4 x89 + 4 x139 + 4 x189 + 4 x239 + 4 x289 + 4 x339 + 4 x389
       + 4 x439 + 4 x489 - 19 x539 <= 0
 c140: 4 x40 + 4 x90 + 4 x140 + 4 x190 + 4 x240 + 4 x290 + 4 x340 + 4 x390
       + 4 x440 + 4 x490 - 19 x540 <= 0
 c141: 4 x41 + 4 x91 + 4 x141 + 4 x191 + 4 x241 + 4 x291 + 4 x341 + 4 x391
       + 4 x441 + 4 x491 - 18 x541 <= 0
 c142: 4 x42 + 4 x92 + 4 x142 + 4 x192 + 4 x242 + 4 x292 + 4 x342 + 4 x392
       + 4 x442 + 4 x492 - 20 x542 <= 0
 c143: 4 x43 + 4 x93 + 4 x143 + 4 x193 + 4 x243 + 4 x293 + 4 x343 + 4 x393
       + 4 x443 + 4 x493 - 20 x543 <= 0
 c144: 4 x44 + 4 x94 + 4 x144 + 4 x194 + 4 x244 + 4 x294 + 4 x344 + 4 x394
       + 4 x444 + 4 x494 - 18 x544 <= 0
 c145: 4 x45 + 4 x95 + 4 x145 + 4 x195 + 4 x245 + 4 x295 + 4 x345 + 4 x395
       + 4 x445 + 4 x495 - 21 x545 <= 0
 c146: 4 x46 + 4 x96 + 4 x146 + 4 x196 + 4 x246 + 4 x296 + 4 x346 + 4 x396
       + 4 x446 + 4 x496 - 20 x546 <= 0
 c147: 4 x47 + 4 x97 + 4 x147 + 4 x197 + 4 x247 + 4 x297 + 4 x347 + 4 x397
       + 4 x447 + 4 x497 - 19 x547 <= 0
 c148: 4 x48 + 4 x98 + 4 x148 + 4 x198 + 4 x248 + 4 x298 + 4 x348 + 4 x398
       + 4 x448 + 4 x498 - 22 x548 <= 0
 c149: 4 x49 + 4 x99 + 4 x149 + 4 x199 + 4 x249 + 4 x299 + 4 x349 + 4 x399
       + 4 x449 + 4 x499 - 19 x549 <= 0
 c150: 4 x50 + 4 x100 + 4 x150 + 4 x200 + 4 x250 + 4 x300 + 4 x350 + 4 x400
       + 4 x450 + 4 x500 - 33 x550 <= 0
Bounds
 0 <= x1 <= 1
 0 <= x2 <= 1
 0 <= x3 <= 1
 0 <= x4 <= 1
 0 <= x5 <= 1
 0 <= x6 <= 1
 0 <= x7 <= 1
 0 <= x8 <= 1
 0 <= x9 <= 1
 0 <= x10 <= 1
 0 <= x11 <= 1
 0 <= x12 <= 1
 0 <= x13 <= 1
 0 <= x14 <= 1
 0 <= x15 <= 1
 0 <= x16 <= 1
 0 <= x17 <= 1
 0 <= x18 <= 1
 0 <= x19 <= 1
 0 <= x20 <= 1
 0 <= x21 <= 1
 0 <= x22 <= 1
 0 <= x23 <= 1
 0 <= x24 <= 1
 0 <= x25 <= 1
 0 <= x26 <= 1
 0 <= x27 <= 1
 0 <= x28 <= 1
 0 <= x29 <= 1
 0 <= x30 <= 1
 0 <= x31 <= 1
 0 <= x32 <= 1
 0 <= x33 <= 1
 0 <= x34 <= 1
 0 <= x35 <= 1
 0 <= x36 <= 1
 0 <= x37 <= 1
 0 <= x38 <= 1
 0 <= x39 <= 1
 0 <= x40 <= 1
 0 <= x41 <= 1
 0 <= x42 <= 1
 0 <= x43 <= 1
 0 <= x44 <= 1
 0 <= x45 <= 1
 0 <= x46 <= 1
 0 <= x47 <= 1
 0 <= x48 <= 1
 0 <= x49 <= 1
 0 <= x50 <= 1
 0 <= x51 <= 1
 0 <= x52 <= 1
 0 <= x53 <= 1
 0 <= x54 <= 1
 0 <= x55 <= 1
 0 <= x56 <= 1
 0 <= x57 <= 1
 0 <= x58 <= 1
 0 <= x59 <= 1
 0 <= x60 <= 1
 0 <= x61 <= 1
 0 <= x62 <= 1
 0 <= x63 <= 1
 0 <= x64 <= 1
 0 <= x65 <= 1
 0 <= x66 <= 1
 0 <= x67 <= 1
 0 <= x68 <= 1
 0 <= x69 <= 1
 0 <= x70 <= 1
 0 <= x71 <= 1
 0 <= x72 <= 1
 0 <= x73 <= 1
 0 <= x74 <= 1
 0 <= x75 <= 1
 0 <= x76 <= 1
 0 <= x77 <= 1
 0 <= x78 <= 1
 0 <= x79 <= 1
 0 <= x80 <= 1
 0 <= x81 <= 1
 0 <= x82 <= 1
 0 <= x83 <= 1
 0 <= x84 <= 1
 0 <= x85 <= 1
 0 <= x86 <= 1
 0 <= x87 <= 1
 0 <= x88 <= 1
 0 <= x89 <= 1
 0 <= x90 <= 1
 0 <= x91 <= 1
 0 <= x92 <= 1
 0 <= x93 <= 1
 0 <= x94 <= 1
 0 <= x95 <= 1
 0 <= x96 <= 1
 0 <= x97 <= 1
 0 <= x98 <= 1
 0 <= x99 <= 1
 0 <= x100 <= 1
 0 <= x101 <= 1
 0 <= x102 <= 1
 0 <= x103 <= 1
 0 <= x104 <= 1
 0 <= x105 <= 1
 0 <= x106 <= 1
 0 <= x107 <= 1
 0 <= x108 <= 1
 0 <= x109 <= 1
 0 <= x110 <= 1
 0 <= x111 <= 1
 0 <= x112 <= 1
 0 <= x113 <= 1
 0 <= x114 <= 1
 0 <= x115 <= 1
 0 <= x116 <= 1
 0 <= x117 <= 1
 0 <= x118 <= 1
 0 <= x119 <= 1
 0 <= x120 <= 1
 0 <= x121 <= 1
 0 <= x122 <= 1
 0 <= x123 <= 1
 0 <= x124 <= 1
 0 <= x125 <= 1
 0 <= x126 <= 1
 0 <= x127 <= 1
 0 <= x128 <= 1
 0 <= x129 <= 1
 0 <= x130 <= 1
 0 <= x131 <= 1
 0 <= x132 <= 1
 0 <= x133 <= 1
 0 <= x134 <= 1
 0 <= x135 <= 1
 0 <= x136 <= 1
 0 <= x137 <= 1
 0 <= x138 <= 1
 0 <= x139 <= 1
 0 <= x140 <= 1
 0 <= x141 <= 1
 0 <= x142 <= 1
 0 <= x143 <= 1
 0 <= x144 <= 1
 0 <= x145 <= 1
 0 <= x146 <= 1
 0 <= x147 <= 1
 0 <= x148 <= 1
 0 <= x149 <= 1
 0 <= x150 <= 1
 0 <= x151 <= 1
 0 <= x152 <= 1
 0 <= x153 <= 1
 0 <= x154 <= 1
 0 <= x155 <= 1
 0 <= x156 <= 1
 0 <= x157 <= 1
 0 <= x158 <= 1
 0 <= x159 <= 1
 0 <= x160 <= 1
 0 <= x161 <= 1
 0 <= x162 <= 1
 0 <= x163 <= 1
 0 <= x164 <= 1
 0 <= x165 <= 1
 0 <= x166 <= 1
 0 <= x167 <= 1
 0 <= x168 <= 1
 0 <= x169 <= 1
 0 <= x170 <= 1
 0 <= x171 <= 1
 0 <= x172 <= 1
 0 <= x173 <= 1
 0 <= x174 <= 1
 0 <= x175 <= 1
 0 <= x176 <= 1
 0 <= x177 <= 1
 0 <= x178 <= 1
 0 <= x179 <= 1
 0 <= x180 <= 1
 0 <= x181 <= 1
 0 <= x182 <= 1
 0 <= x183 <= 1
 0 <= x184 <= 1
 0 <= x185 <= 1
 0 <= x186 <= 1
 0 <= x187 <= 1
 0 <= x188 <= 1
 0 <= x189 <= 1
 0 <= x190 <= 1
 0 <= x191 <= 1
 0 <= x192 <= 1
 0 <= x193 <= 1
 0 <= x194 <= 1
 0 <= x195 <= 1
 0 <= x196 <= 1
 0 <= x197 <= 1
 0 <= x198 <= 1
 0 <= x199 <= 1
 0 <= x200 <= 1
 0 <= x201 <= 1
 0 <= x202 <= 1
 0 <= x203 <= 1
 0 <= x204 <= 1
 0 <= x205 <= 1
 0 <= x206 <= 1
 0 <= x207 <= 1
 0 <= x208 <= 1
 0 <= x209 <= 1
 0 <= x210 <= 1
 0 <= x211 <= 1
 0 <= x212 <= 1
 0 <= x213 <= 1
 0 <= x214 <= 1
 0 <= x215 <= 1
 0 <= x216 <= 1
 0 <= x217 <= 1
 0 <= x218 <= 1
 0 <= x219 <= 1
 0 <= x220 <= 1
 0 <= x221 <= 1
 0 <= x222 <= 1
 0 <= x223 <= 1
 0 <= x224 <= 1
 0 <= x225 <= 1
 0 <= x226 <= 1
 0 <= x227 <= 1
 0 <= x228 <= 1
 0 <= x229 <= 1
 0 <= x230 <= 1
 0 <= x231 <= 1
 0 <= x232 <= 1
 0 <= x233 <= 1
 0 <= x234 <= 1
 0 <= x235 <= 1
 0 <= x236 <= 1
 0 <= x237 <= 1
 0 <= x238 <= 1
 0 <= x239 <= 1
 0 <= x240 <= 1
 0 <= x241 <= 1
 0 <= x242 <= 1
 0 <= x243 <= 1
 0 <= x244 <= 1
 0 <= x245 <= 1
 0 <= x246 <= 1
 0 <= x247 <= 1
 0 <= x248 <= 1
 0 <= x249 <= 1
 0 <= x250 <= 1
 0 <= x251 <= 1
 0 <= x252 <= 1
 0 <= x253 <= 1
 0 <= x254 <= 1
 0 <= x255 <= 1
 0 <= x256 <= 1
 0 <= x257 <= 1
 0 <= x258 <= 1
 0 <= x259 <= 1
 0 <= x260 <= 1
 0 <= x261 <= 1
 0 <= x262 <= 1
 0 <= x263 <= 1
 0 <= x264 <= 1
 0 <= x265 <= 1
 0 <= x266 <= 1
 0 <= x267 <= 1
 0 <= x268 <= 1
 0 <= x269 <= 1
 0 <= x270 <= 1
 0 <= x271 <= 1
 0 <= x272 <= 1
 0 <= x273 <= 1
 0 <= x274 <= 1
 0 <= x275 <= 1
 0 <= x276 <= 1
 0 <= x277 <= 1
 0 <= x278 <= 1
 0 <= x279 <= 1
 0 <= x280 <= 1
 0 <= x281 <= 1
 0 <= x282 <= 1
 0 <= x283 <= 1
 0 <= x284 <= 1
 0 <= x285 <= 1
 0 <= x286 <= 1
 0 <= x287 <= 1
 0 <= x288 <= 1
 0 <= x289 <= 1
 0 <= x290 <= 1
 0 <= x291 <= 1
 0 <= x292 <= 1
 0 <= x293 <= 1
 0 <= x294 <= 1
 0 <= x295 <= 1
 0 <= x296 <= 1
 0 <= x297 <= 1
 0 <= x298 <= 1
 0 <= x299 <= 1
 0 <= x300 <= 1
 0 <= x301 <= 1
 0 <= x302 <= 1
 0 <= x303 <= 1
 0 <= x304 <= 1
 0 <= x305 <= 1
 0 <= x306 <= 1
 0 <= x307 <= 1
 0 <= x308 <= 1
 0 <= x309 <= 1
 0 <= x310 <= 1
 0 <= x311 <= 1
 0 <= x312 <= 1
 0 <= x313 <= 1
 0 <= x314 <= 1
 0 <= x315 <= 1
 0 <= x316 <= 1
 0 <= x317 <= 1
 0 <= x318 <= 1
 0 <= x319 <= 1
 0 <= x320 <= 1
 0 <= x321 <= 1
 0 <= x322 <= 1
 0 <= x323 <= 1
 0 <= x324 <= 1
 0 <= x325 <= 1
 0 <= x326 <= 1
 0 <= x327 <= 1
 0 <= x328 <= 1
 0 <= x329 <= 1
 0 <= x330 <= 1
 0 <= x331 <= 1
 0 <= x332 <= 1
 0 <= x333 <= 1
 0 <= x334 <= 1
 0 <= x335 <= 1
 0 <= x336 <= 1
 0 <= x337 <= 1
 0 <= x338 <= 1
 0 <= x339 <= 1
 0 <= x340 <= 1
 0 <= x341 <= 1
 0 <= x342 <= 1
 0 <= x343 <= 1
 0 <= x344 <= 1
 0 <= x345 <= 1
 0 <= x346 <= 1
 0 <= x347 <= 1
 0 <= x348 <= 1
 0 <= x349 <= 1
 0 <= x350 <= 1
 0 <= x351 <= 1
 0 <= x352 <= 1
 0 <= x353 <= 1
 0 <= x354 <= 1
 0 <= x355 <= 1
 0 <= x356 <= 1
 0 <= x357 <= 1
 0 <= x358 <= 1
 0 <= x359 <= 1
 0 <= x360 <= 1
 0 <= x361 <= 1
 0 <= x362 <= 1
 0 <= x363 <= 1
 0 <= x364 <= 1
 0 <= x365 <= 1
 0 <= x366 <= 1
 0 <= x367 <= 1
 0 <= x368 <= 1
 0 <= x369 <= 1
 0 <= x370 <= 1
 0 <= x371 <= 1
 0 <= x372 <= 1
 0 <= x373 <= 1
 0 <= x374 <= 1
 0 <= x375 <= 1
 0 <= x376 <= 1
 0 <= x377 <= 1
 0 <= x378 <= 1
 0 <= x379 <= 1
 0 <= x380 <= 1
 0 <= x381 <= 1
 0 <= x382 <= 1
 0 <= x383 <= 1
 0 <= x384 <= 1
 0 <= x385 <= 1
 0 <= x386 <= 1
 0 <= x387 <= 1
 0 <= x388 <= 1
 0 <= x389 <= 1
 0 <= x390 <= 1
 0 <= x391 <= 1
 0 <= x392 <= 1
 0 <= x393 <= 1
 0 <= x394 <= 1
 0 <= x395 <= 1
 0 <= x396 <= 1
 0 <= x397 <= 1
 0 <= x398 <= 1
 0 <= x399 <= 1
 0 <= x400 <= 1
 0 <= x401 <= 1
 0 <= x402 <= 1
 0 <= x403 <= 1
 0 <= x404 <= 1
 0 <= x405 <= 1
 0 <= x406 <= 1
 0 <= x407 <= 1
 0 <= x408 <= 1
 0 <= x409 <= 1
 0 <= x410 <= 1
 0 <= x411 <= 1
 0 <= x412 <= 1
 0 <= x413 <= 1
 0 <= x414 <= 1
 0 <= x415 <= 1
 0 <= x416 <= 1
 0 <= x417 <= 1
 0 <= x418 <= 1
 0 <= x419 <= 1
 0 <= x420 <= 1
 0 <= x421 <= 1
 0 <= x422 <= 1
 0 <= x423 <= 1
 0 <= x424 <= 1
 0 <= x425 <= 1
 0 <= x426 <= 1
 0 <= x427 <= 1
 0 <= x428 <= 1
 0 <= x429 <= 1
 0 <= x430 <= 1
 0 <= x431 <= 1
 0 <= x432 <= 1
 0 <= x433 <= 1
 0 <= x434 <= 1
 0 <= x435 <= 1
 0 <= x436 <= 1
 0 <= x437 <= 1
 0 <= x438 <= 1
 0 <= x439 <= 1
 0 <= x440 <= 1
 0 <= x441 <= 1
 0 <= x442 <= 1
 0 <= x443 <= 1
 0 <= x444 <= 1
 0 <= x445 <= 1
 0 <= x446 <= 1
 0 <= x447 <= 1
 0 <= x448 <= 1
 0 <= x449 <= 1
 0 <= x450 <= 1
 0 <= x451 <= 1
 0 <= x452 <= 1
 0 <= x453 <= 1
 0 <= x454 <= 1
 0 <= x455 <= 1
 0 <= x456 <= 1
 0 <= x457 <= 1
 0 <= x458 <= 1
 0 <= x459 <= 1
 0 <= x460 <= 1
 0 <= x461 <= 1
 0 <= x462 <= 1
 0 <= x463 <= 1
 0 <= x464 <= 1
 0 <= x465 <= 1
 0 <= x466 <= 1
 0 <= x467 <= 1
 0 <= x468 <= 1
 0 <= x469 <= 1
 0 <= x470 <= 1
 0 <= x471 <= 1
 0 <= x472 <= 1
 0 <= x473 <= 1
 0 <= x474 <= 1
 0 <= x475 <= 1
 0 <= x476 <= 1
 0 <= x477 <= 1
 0 <= x478 <= 1
 0 <= x479 <= 1
 0 <= x480 <= 1
 0 <= x481 <= 1
 0 <= x482 <= 1
 0 <= x483 <= 1
 0 <= x484 <= 1
 0 <= x485 <= 1
 0 <= x486 <= 1
 0 <= x487 <= 1
 0 <= x488 <= 1
 0 <= x489 <= 1
 0 <= x490 <= 1
 0 <= x491 <= 1
 0 <= x492 <= 1
 0 <= x493 <= 1
 0 <= x494 <= 1
 0 <= x495 <= 1
 0 <= x496 <= 1
 0 <= x497 <= 1
 0 <= x498 <= 1
 0 <= x499 <= 1
 0 <= x500 <= 1
 0 <= x501 <= 1
 0 <= x502 <= 1
 0 <= x503 <= 1
 0 <= x504 <= 1
 0 <= x505 <= 1
 0 <= x506 <= 1
 0 <= x507 <= 1
 0 <= x508 <= 1
 0 <= x509 <= 1
 0 <= x510 <= 1
 0 <= x511 <= 1
 0 <= x512 <= 1
 0 <= x513 <= 1
 0 <= x514 <= 1
 0 <= x515 <= 1
 0 <= x516 <= 1
 0 <= x517 <= 1
 0 <= x518 <= 1
 0 <= x519 <= 1
 0 <= x520 <= 1
 0 <= x521 <= 1
 0 <= x522 <= 1
 0 <= x523 <= 1
 0 <= x524 <= 1
 0 <= x525 <= 1
 0 <= x526 <= 1
 0 <= x527 <= 1
 0 <= x528 <= 1
 0 <= x529 <= 1
 0 <= x530 <= 1
 0 <= x531 <= 1
 0 <= x532 <= 1
 0 <= x533 <= 1
 0 <= x534 <= 1
 0 <= x535 <= 1
 0 <= x536 <= 1
 0 <= x537 <= 1
 0 <= x538 <= 1
 0 <= x539 <= 1
 0 <= x540 <= 1
 0 <= x541 <= 1
 0 <= x542 <= 1
 0 <= x543 <= 1
 0 <= x544 <= 1
 0 <= x545 <= 1
 0 <= x546 <= 1
 0 <= x547 <= 1
 0 <= x548 <= 1
 0 <= x549 <= 1
 0 <= x550 <= 1
Binaries
 x501  x502  x503  x504  x505  x506  x507  x508  x509  x510  x511  x512  x513 
 x514  x515  x516  x517  x518  x519  x520  x521  x522  x523  x524  x525  x526 
 x527  x528  x529  x530  x531  x532  x533  x534  x535  x536  x537  x538  x539 
 x540  x541  x542  x543  x544  x545  x546  x547  x548  x549  x550 
End
